# Tensile test of Mfp5 melt with neutralizing ions.

#-------------------------------- Setup ----------------------------------#

units           real
neigh_modify    every 1 delay 0 check yes
boundary		p p p

atom_style 		full
bond_style      harmonic
angle_style     charmm
dihedral_style  charmm
improper_style  harmonic
pair_style      lj/charmm/coul/long 8 12
pair_modify     mix arithmetic
kspace_style    ewald 1e-6
special_bonds   charmm

#--------- Modify following line to point to the desired CMAP file ------#

fix             cmap all cmap charmm36.cmap
fix_modify      cmap energy yes

read_data 		7_T300_P1.data fix cmap crossterm CMAP

#-------------------------------- Variables -----------------------------#

variable        temperature equal 300.0
variable 		pressure equal 1
variable 		tmp equal "lz"
variable 		L0 equal ${tmp}
variable 		strain equal "(lz-v_L0)/v_L0"
variable 		erate equal 0.1/1000000 # 10 percent per ns
variable 		outname string tensile_test
#---------------------------- Define Groups -----------------------------#

group 			water type <HT_type> <OT_type>

#------------------------------- SHAKE Algorithm ------------------------#

fix             s water shake 1e-6 500 0 b <OH_shake_bondtype> <HH_shake_bondtype> #ID group-ID style tolerance maxiters print every N constraints keywords. Bond type (b) 45 is HT OT.

## ------------------------- MD Deformation -----------------------------#

thermo          1000
thermo_style 	custom step temp etotal press pxx pyy pzz vol density lx ly lz

fix 			1 all npt temp ${temperature} ${temperature} 100 x 0 0 1000 y 0 0 1000
fix 			2 all deform 1 z erate ${erate} units box remap x

fix 			12 all ave/time 1 2 10 c_thermo_press[*] file thermo_press.txt

variable 		p1 equal "v_strain"
variable 		p2 equal "-pxx*101.325"
variable 		p3 equal "-pyy*101.325"
variable  		p4 equal "-pzz*101.325"
fix 			def1 all print 10 "${p1} ${p2} ${p3} ${p4}" file stress_strain.txt screen no

dump			1 all dcd 1000 ${outname}.dcd
dump 			2 all dcd 1000 ${outname}_unwrap.dcd
dump_modify 	2 unwrap yes
run             10000000 # 10.0 ns

write_data	    ${outname}_end.data
write_data		${outname}_10ns.restart
